p edge 889 834
e 1 2
e 1 3
e 1 4
e 1 5
e 1 6
e 1 7
e 1 8
e 1 9
e 1 10
e 1 11
e 1 12
e 1 13
e 14 15
e 14 16
e 14 17
e 14 18
e 14 19
e 14 20
e 14 21
e 14 22
e 14 23
e 14 24
e 14 25
e 26 27
e 26 28
e 26 29
e 26 30
e 26 31
e 26 32
e 26 33
e 26 34
e 26 35
e 26 36
e 37 38
e 37 39
e 37 40
e 37 41
e 37 42
e 37 43
e 37 44
e 37 45
e 37 46
e 37 47
e 37 48
e 37 49
e 37 50
e 37 51
e 37 52
e 37 53
e 37 54
e 37 55
e 37 56
e 57 58
e 57 59
e 57 60
e 57 61
e 57 62
e 57 63
e 57 64
e 57 65
e 57 66
e 57 67
e 57 68
e 57 69
e 57 70
e 57 71
e 57 72
e 57 73
e 57 74
e 57 75
e 57 76
e 77 78
e 77 79
e 77 80
e 77 81
e 77 82
e 77 83
e 77 84
e 77 85
e 77 86
e 77 87
e 77 88
e 77 89
e 77 90
e 77 91
e 77 92
e 93 94
e 93 95
e 93 96
e 93 97
e 93 98
e 93 99
e 93 100
e 93 101
e 93 102
e 93 103
e 93 104
e 93 105
e 93 106
e 93 107
e 93 108
e 93 109
e 110 111
e 110 112
e 110 113
e 110 114
e 110 115
e 110 116
e 110 117
e 110 118
e 110 119
e 110 120
e 110 121
e 110 122
e 110 123
e 110 124
e 110 125
e 110 126
e 110 127
e 128 129
e 128 130
e 128 131
e 128 132
e 128 133
e 128 134
e 128 135
e 128 136
e 128 137
e 128 138
e 128 139
e 128 140
e 128 141
e 128 142
e 128 143
e 128 144
e 145 146
e 145 147
e 145 148
e 145 149
e 145 150
e 145 151
e 145 152
e 145 153
e 145 154
e 145 155
e 145 156
e 145 157
e 145 158
e 145 159
e 145 160
e 145 161
e 162 163
e 162 164
e 162 165
e 162 166
e 162 167
e 162 168
e 162 169
e 162 170
e 162 171
e 162 172
e 162 173
e 162 174
e 162 175
e 162 176
e 162 177
e 162 178
e 162 179
e 162 180
e 162 181
e 162 182
e 183 184
e 183 185
e 183 186
e 183 187
e 183 188
e 183 189
e 183 190
e 183 191
e 183 192
e 183 193
e 183 194
e 183 195
e 196 197
e 196 198
e 196 199
e 196 200
e 196 201
e 196 202
e 196 203
e 196 204
e 196 205
e 196 206
e 196 207
e 196 208
e 196 209
e 210 211
e 210 212
e 210 213
e 210 214
e 210 215
e 210 216
e 210 217
e 210 218
e 210 219
e 210 220
e 210 221
e 210 222
e 210 223
e 210 224
e 210 225
e 210 226
e 210 227
e 210 228
e 210 229
e 210 230
e 231 232
e 231 233
e 231 234
e 231 235
e 231 236
e 231 237
e 231 238
e 231 239
e 231 240
e 231 241
e 231 242
e 231 243
e 231 244
e 231 245
e 231 246
e 231 247
e 231 248
e 231 249
e 250 251
e 250 252
e 250 253
e 250 254
e 250 255
e 250 256
e 250 257
e 250 258
e 250 259
e 250 260
e 250 261
e 250 262
e 250 263
e 250 264
e 250 265
e 250 266
e 250 267
e 250 268
e 250 269
e 250 270
e 271 272
e 271 273
e 271 274
e 271 275
e 271 276
e 271 277
e 271 278
e 271 279
e 271 280
e 271 281
e 271 282
e 271 283
e 271 284
e 271 285
e 271 286
e 271 287
e 271 288
e 289 290
e 289 291
e 289 292
e 289 293
e 289 294
e 289 295
e 289 296
e 289 297
e 289 298
e 289 299
e 289 300
e 289 301
e 289 302
e 289 303
e 289 304
e 289 305
e 289 306
e 289 307
e 289 308
e 289 309
e 310 311
e 310 312
e 310 313
e 310 314
e 310 315
e 310 316
e 310 317
e 310 318
e 310 319
e 310 320
e 310 321
e 310 322
e 310 323
e 310 324
e 310 325
e 310 326
e 310 327
e 328 329
e 328 330
e 328 331
e 328 332
e 328 333
e 328 334
e 328 335
e 328 336
e 328 337
e 328 338
e 328 339
e 328 340
e 328 341
e 328 342
e 328 343
e 344 345
e 344 346
e 344 347
e 344 348
e 344 349
e 344 350
e 344 351
e 344 352
e 344 353
e 344 354
e 344 355
e 344 356
e 344 357
e 344 358
e 344 359
e 360 361
e 360 362
e 360 363
e 360 364
e 360 365
e 360 366
e 360 367
e 360 368
e 360 369
e 360 370
e 360 371
e 360 372
e 373 374
e 373 375
e 373 376
e 373 377
e 373 378
e 373 379
e 373 380
e 373 381
e 373 382
e 373 383
e 373 384
e 373 385
e 373 386
e 373 387
e 373 388
e 373 389
e 373 390
e 373 391
e 392 393
e 392 394
e 392 395
e 392 396
e 392 397
e 392 398
e 392 399
e 392 400
e 392 401
e 392 402
e 392 403
e 404 405
e 404 406
e 404 407
e 404 408
e 404 409
e 404 410
e 404 411
e 404 412
e 404 413
e 404 414
e 404 415
e 404 416
e 404 417
e 404 418
e 404 419
e 420 421
e 420 422
e 420 423
e 420 424
e 420 425
e 420 426
e 420 427
e 420 428
e 420 429
e 420 430
e 420 431
e 420 432
e 420 433
e 420 434
e 420 435
e 420 436
e 420 437
e 420 438
e 439 440
e 439 441
e 439 442
e 439 443
e 439 444
e 439 445
e 439 446
e 439 447
e 439 448
e 439 449
e 439 450
e 439 451
e 439 452
e 439 453
e 439 454
e 439 455
e 439 456
e 457 458
e 457 459
e 457 460
e 457 461
e 457 462
e 457 463
e 457 464
e 457 465
e 457 466
e 457 467
e 457 468
e 469 470
e 469 471
e 469 472
e 469 473
e 469 474
e 469 475
e 469 476
e 469 477
e 469 478
e 469 479
e 480 481
e 480 482
e 480 483
e 480 484
e 480 485
e 480 486
e 480 487
e 480 488
e 480 489
e 480 490
e 491 492
e 491 493
e 491 494
e 491 495
e 491 496
e 491 497
e 491 498
e 491 499
e 491 500
e 491 501
e 491 502
e 491 503
e 491 504
e 505 506
e 505 507
e 505 508
e 505 509
e 505 510
e 505 511
e 505 512
e 505 513
e 505 514
e 505 515
e 516 517
e 516 518
e 516 519
e 516 520
e 516 521
e 516 522
e 516 523
e 516 524
e 516 525
e 516 526
e 516 527
e 516 528
e 516 529
e 516 530
e 516 531
e 516 532
e 516 533
e 516 534
e 516 535
e 516 536
e 537 538
e 537 539
e 537 540
e 537 541
e 537 542
e 537 543
e 537 544
e 537 545
e 537 546
e 537 547
e 537 548
e 537 549
e 537 550
e 537 551
e 537 552
e 553 554
e 553 555
e 553 556
e 553 557
e 553 558
e 553 559
e 553 560
e 553 561
e 553 562
e 553 563
e 553 564
e 553 565
e 553 566
e 553 567
e 553 568
e 553 569
e 553 570
e 553 571
e 572 573
e 572 574
e 572 575
e 572 576
e 572 577
e 572 578
e 572 579
e 572 580
e 572 581
e 572 582
e 572 583
e 572 584
e 585 586
e 585 587
e 585 588
e 585 589
e 585 590
e 585 591
e 585 592
e 585 593
e 585 594
e 585 595
e 585 596
e 585 597
e 585 598
e 585 599
e 585 600
e 585 601
e 585 602
e 585 603
e 604 605
e 604 606
e 604 607
e 604 608
e 604 609
e 604 610
e 604 611
e 604 612
e 604 613
e 604 614
e 604 615
e 604 616
e 604 617
e 604 618
e 619 620
e 619 621
e 619 622
e 619 623
e 619 624
e 619 625
e 619 626
e 619 627
e 619 628
e 619 629
e 619 630
e 619 631
e 619 632
e 619 633
e 619 634
e 619 635
e 636 637
e 636 638
e 636 639
e 636 640
e 636 641
e 636 642
e 636 643
e 636 644
e 636 645
e 636 646
e 636 647
e 636 648
e 636 649
e 636 650
e 651 652
e 651 653
e 651 654
e 651 655
e 651 656
e 651 657
e 651 658
e 651 659
e 651 660
e 651 661
e 651 662
e 651 663
e 651 664
e 651 665
e 666 667
e 666 668
e 666 669
e 666 670
e 666 671
e 666 672
e 666 673
e 666 674
e 666 675
e 666 676
e 666 677
e 666 678
e 666 679
e 680 681
e 680 682
e 680 683
e 680 684
e 680 685
e 680 686
e 680 687
e 680 688
e 680 689
e 680 690
e 691 692
e 691 693
e 691 694
e 691 695
e 691 696
e 691 697
e 691 698
e 691 699
e 691 700
e 691 701
e 691 702
e 703 704
e 703 705
e 703 706
e 703 707
e 703 708
e 703 709
e 703 710
e 703 711
e 703 712
e 703 713
e 703 714
e 703 715
e 703 716
e 703 717
e 703 718
e 703 719
e 703 720
e 721 722
e 721 723
e 721 724
e 721 725
e 721 726
e 721 727
e 721 728
e 721 729
e 721 730
e 721 731
e 721 732
e 721 733
e 721 734
e 721 735
e 721 736
e 721 737
e 738 739
e 738 740
e 738 741
e 738 742
e 738 743
e 738 744
e 738 745
e 738 746
e 738 747
e 738 748
e 749 750
e 749 751
e 749 752
e 749 753
e 749 754
e 749 755
e 749 756
e 749 757
e 749 758
e 749 759
e 749 760
e 749 761
e 749 762
e 749 763
e 749 764
e 749 765
e 766 767
e 766 768
e 766 769
e 766 770
e 766 771
e 766 772
e 766 773
e 766 774
e 766 775
e 766 776
e 766 777
e 766 778
e 766 779
e 766 780
e 766 781
e 766 782
e 766 783
e 784 785
e 784 786
e 784 787
e 784 788
e 784 789
e 784 790
e 784 791
e 784 792
e 784 793
e 784 794
e 784 795
e 784 796
e 784 797
e 784 798
e 784 799
e 784 800
e 801 802
e 801 803
e 801 804
e 801 805
e 801 806
e 801 807
e 801 808
e 801 809
e 801 810
e 801 811
e 801 812
e 801 813
e 801 814
e 801 815
e 816 817
e 816 818
e 816 819
e 816 820
e 816 821
e 816 822
e 816 823
e 816 824
e 816 825
e 816 826
e 816 827
e 816 828
e 816 829
e 816 830
e 816 831
e 816 832
e 816 833
e 816 834
e 835 836
e 835 837
e 835 838
e 835 839
e 835 840
e 835 841
e 835 842
e 835 843
e 835 844
e 835 845
e 835 846
e 835 847
e 835 848
e 835 849
e 835 850
e 851 852
e 851 853
e 851 854
e 851 855
e 851 856
e 851 857
e 851 858
e 851 859
e 851 860
e 851 861
e 851 862
e 851 863
e 851 864
e 851 865
e 851 866
e 851 867
e 851 868
e 851 869
e 851 870
e 871 872
e 871 873
e 871 874
e 871 875
e 871 876
e 871 877
e 871 878
e 871 879
e 871 880
e 871 881
e 871 882
e 871 883
e 871 884
e 871 885
e 871 886
e 871 887
e 871 888
e 871 889
